decision_x1=[0,4];
decision_x2=[0,4];
decision_x3=[0,4];
decision_x4=[0,4];
decision_x5=[0,4];
decision_x6=[0,4];
decision_x7=[0,4];
decision_x8=[0,4];
decision_x9=[0,4];
decision_x10=[0,4];
random_y1=[0,4];
random_y2=[0,4];
random_y3=[0,4];
random_y4=[0,4];
random_y5=[0,4];
random_y6=[0,4];
random_y7=[0,4];
random_y8=[0,4];
random_y9=[0,4];
random_y10=[0,4];
constraint_x4_x1=[
0,0,95|
0,1,30|
0,2,20|
0,3,1.2|
0,4,60|
1,0,15|
1,1,54|
1,2,14|
1,3,0.017|
1,4,2.1|
2,0,39|
2,1,11|
2,2,53|
2,3,35|
2,4,36|
3,0,62|
3,1,51|
3,2,52|
3,3,65|
3,4,8.5|
4,0,58|
4,1,82|
4,2,89|
4,3,1.3|
4,4,21|
];
constraint_x4_x2=[
0,0,4.8|
0,1,65|
0,2,80|
0,3,22|
0,4,0.93|
1,0,17|
1,1,79|
1,2,91|
1,3,25|
1,4,61|
2,0,55|
2,1,64|
2,2,88|
2,3,48|
2,4,20|
3,0,7.3|
3,1,20|
3,2,21|
3,3,60|
3,4,70|
4,0,8.4|
4,1,51|
4,2,85|
4,3,28|
4,4,0.19|
];
constraint_x4_x3=[
0,0,35|
0,1,56|
0,2,30|
0,3,52|
0,4,67|
1,0,31|
1,1,51|
1,2,57|
1,3,57|
1,4,1.1|
2,0,15|
2,1,55|
2,2,82|
2,3,81|
2,4,89|
3,0,2.5|
3,1,49|
3,2,58|
3,3,7.5|
3,4,47|
4,0,11|
4,1,10|
4,2,85|
4,3,29|
4,4,94|
];
constraint_x5_x4=[
0,0,82|
0,1,12|
0,2,56|
0,3,52|
0,4,76|
1,0,9.8|
1,1,93|
1,2,79|
1,3,0.21|
1,4,44|
2,0,66|
2,1,2.6|
2,2,44|
2,3,53|
2,4,73|
3,0,66|
3,1,70|
3,2,58|
3,3,92|
3,4,3.6|
4,0,80|
4,1,55|
4,2,30|
4,3,80|
4,4,90|
];
constraint_x6_x1=[
0,0,54|
0,1,15|
0,2,49|
0,3,37|
0,4,16|
1,0,87|
1,1,15|
1,2,59|
1,3,89|
1,4,82|
2,0,90|
2,1,4.1|
2,2,89|
2,3,19|
2,4,46|
3,0,58|
3,1,81|
3,2,0.77|
3,3,74|
3,4,90|
4,0,72|
4,1,52|
4,2,50|
4,3,99|
4,4,67|
];
constraint_x6_x2=[
0,0,39|
0,1,34|
0,2,28|
0,3,83|
0,4,36|
1,0,24|
1,1,0.041|
1,2,97|
1,3,3.8|
1,4,30|
2,0,2.5|
2,1,5.1|
2,2,80|
2,3,88|
2,4,47|
3,0,76|
3,1,60|
3,2,94|
3,3,42|
3,4,0.87|
4,0,28|
4,1,92|
4,2,69|
4,3,57|
4,4,30|
];
constraint_x6_x3=[
0,0,91|
0,1,12|
0,2,52|
0,3,78|
0,4,93|
1,0,21|
1,1,57|
1,2,49|
1,3,17|
1,4,14|
2,0,75|
2,1,6.2|
2,2,52|
2,3,76|
2,4,47|
3,0,14|
3,1,57|
3,2,72|
3,3,63|
3,4,80|
4,0,66|
4,1,77|
4,2,94|
4,3,25|
4,4,96|
];
constraint_x6_x4=[
0,0,22|
0,1,27|
0,2,66|
0,3,83|
0,4,26|
1,0,96|
1,1,34|
1,2,32|
1,3,11|
1,4,8.9|
2,0,19|
2,1,57|
2,2,88|
2,3,60|
2,4,91|
3,0,91|
3,1,51|
3,2,61|
3,3,89|
3,4,10|
4,0,50|
4,1,46|
4,2,30|
4,3,73|
4,4,60|
];
constraint_x6_x5=[
0,0,29|
0,1,93|
0,2,26|
0,3,15|
0,4,72|
1,0,54|
1,1,16|
1,2,15|
1,3,47|
1,4,99|
2,0,68|
2,1,84|
2,2,58|
2,3,13|
2,4,97|
3,0,59|
3,1,72|
3,2,86|
3,3,83|
3,4,41|
4,0,46|
4,1,97|
4,2,53|
4,3,9.1|
4,4,56|
];
constraint_x7_x1=[
0,0,99|
0,1,9.1|
0,2,92|
0,3,62|
0,4,81|
1,0,91|
1,1,52|
1,2,13|
1,3,45|
1,4,74|
2,0,55|
2,1,30|
2,2,63|
2,3,75|
2,4,47|
3,0,7.6|
3,1,20|
3,2,41|
3,3,50|
3,4,29|
4,0,70|
4,1,33|
4,2,38|
4,3,44|
4,4,9.8|
];
constraint_x7_x3=[
0,0,19|
0,1,38|
0,2,61|
0,3,2.7|
0,4,63|
1,0,46|
1,1,8.7|
1,2,66|
1,3,65|
1,4,74|
2,0,31|
2,1,78|
2,2,27|
2,3,32|
2,4,89|
3,0,59|
3,1,19|
3,2,74|
3,3,62|
3,4,53|
4,0,10|
4,1,73|
4,2,66|
4,3,79|
4,4,12|
];
constraint_x7_x4=[
0,0,12|
0,1,36|
0,2,76|
0,3,11|
0,4,54|
1,0,21|
1,1,61|
1,2,98|
1,3,33|
1,4,0.45|
2,0,18|
2,1,68|
2,2,43|
2,3,89|
2,4,16|
3,0,8.9|
3,1,38|
3,2,49|
3,3,0.7|
3,4,78|
4,0,8.8|
4,1,15|
4,2,6.8|
4,3,97|
4,4,17|
];
constraint_x7_x5=[
0,0,71|
0,1,39|
0,2,13|
0,3,33|
0,4,39|
1,0,92|
1,1,98|
1,2,17|
1,3,88|
1,4,9.5|
2,0,3.6|
2,1,85|
2,2,24|
2,3,18|
2,4,98|
3,0,76|
3,1,30|
3,2,11|
3,3,64|
3,4,71|
4,0,45|
4,1,68|
4,2,64|
4,3,25|
4,4,64|
];
constraint_x7_x6=[
0,0,78|
0,1,4.3|
0,2,31|
0,3,22|
0,4,44|
1,0,52|
1,1,70|
1,2,88|
1,3,75|
1,4,27|
2,0,47|
2,1,35|
2,2,8.6|
2,3,46|
2,4,80|
3,0,95|
3,1,76|
3,2,87|
3,3,36|
3,4,25|
4,0,8.3|
4,1,65|
4,2,13|
4,3,77|
4,4,50|
];
constraint_x8_x1=[
0,0,48|
0,1,8.5|
0,2,54|
0,3,72|
0,4,7.2|
1,0,0.77|
1,1,68|
1,2,15|
1,3,50|
1,4,43|
2,0,71|
2,1,17|
2,2,7.3|
2,3,34|
2,4,18|
3,0,78|
3,1,91|
3,2,9.7|
3,3,38|
3,4,10|
4,0,68|
4,1,76|
4,2,23|
4,3,81|
4,4,30|
];
constraint_x9_x4=[
0,0,50|
0,1,85|
0,2,10|
0,3,92|
0,4,81|
1,0,88|
1,1,47|
1,2,80|
1,3,62|
1,4,56|
2,0,35|
2,1,81|
2,2,93|
2,3,9.1|
2,4,62|
3,0,47|
3,1,7.9|
3,2,96|
3,3,34|
3,4,75|
4,0,49|
4,1,48|
4,2,5.3|
4,3,4.9|
4,4,77|
];
constraint_x9_x6=[
0,0,19|
0,1,65|
0,2,90|
0,3,21|
0,4,35|
1,0,1.4|
1,1,84|
1,2,46|
1,3,76|
1,4,30|
2,0,59|
2,1,29|
2,2,94|
2,3,9.5|
2,4,85|
3,0,2.3|
3,1,58|
3,2,24|
3,3,14|
3,4,55|
4,0,54|
4,1,15|
4,2,25|
4,3,60|
4,4,70|
];
constraint_x9_x7=[
0,0,79|
0,1,63|
0,2,20|
0,3,98|
0,4,42|
1,0,6.2|
1,1,0.88|
1,2,1.7|
1,3,50|
1,4,6.6|
2,0,30|
2,1,44|
2,2,47|
2,3,17|
2,4,52|
3,0,85|
3,1,9.2|
3,2,62|
3,3,5.8|
3,4,38|
4,0,28|
4,1,4.6|
4,2,50|
4,3,33|
4,4,56|
];
constraint_x9_x8=[
0,0,45|
0,1,48|
0,2,47|
0,3,27|
0,4,30|
1,0,77|
1,1,22|
1,2,76|
1,3,0.98|
1,4,78|
2,0,3.3|
2,1,57|
2,2,48|
2,3,68|
2,4,27|
3,0,38|
3,1,27|
3,2,1e+02|
3,3,82|
3,4,80|
4,0,63|
4,1,56|
4,2,62|
4,3,87|
4,4,51|
];
constraint_x10_x1=[
0,0,82|
0,1,54|
0,2,10|
0,3,35|
0,4,87|
1,0,23|
1,1,5.9|
1,2,58|
1,3,97|
1,4,86|
2,0,12|
2,1,65|
2,2,55|
2,3,76|
2,4,99|
3,0,74|
3,1,71|
3,2,46|
3,3,60|
3,4,55|
4,0,36|
4,1,91|
4,2,98|
4,3,50|
4,4,47|
];
constraint_x10_x4=[
0,0,59|
0,1,44|
0,2,48|
0,3,33|
0,4,8.2|
1,0,63|
1,1,75|
1,2,3.3|
1,3,36|
1,4,52|
2,0,69|
2,1,49|
2,2,31|
2,3,50|
2,4,43|
3,0,37|
3,1,91|
3,2,40|
3,3,67|
3,4,55|
4,0,88|
4,1,76|
4,2,99|
4,3,32|
4,4,56|
];
constraint_x10_x7=[
0,0,79|
0,1,30|
0,2,12|
0,3,62|
0,4,18|
1,0,68|
1,1,26|
1,2,86|
1,3,81|
1,4,79|
2,0,90|
2,1,8.1|
2,2,84|
2,3,67|
2,4,62|
3,0,35|
3,1,86|
3,2,80|
3,3,34|
3,4,61|
4,0,4.1|
4,1,55|
4,2,1e+02|
4,3,82|
4,4,52|
];
constraint_x10_x8=[
0,0,82|
0,1,52|
0,2,84|
0,3,47|
0,4,42|
1,0,67|
1,1,10|
1,2,28|
1,3,40|
1,4,32|
2,0,77|
2,1,65|
2,2,8.8|
2,3,27|
2,4,69|
3,0,52|
3,1,62|
3,2,20|
3,3,91|
3,4,21|
4,0,26|
4,1,36|
4,2,72|
4,3,98|
4,4,86|
];
constraint_x1_y1=[
0,0,74|
0,1,32|
0,2,81|
0,3,35|
0,4,65|
1,0,48|
1,1,20|
1,2,87|
1,3,12|
1,4,91|
2,0,30|
2,1,31|
2,2,75|
2,3,79|
2,4,88|
3,0,31|
3,1,73|
3,2,68|
3,3,21|
3,4,56|
4,0,52|
4,1,20|
4,2,74|
4,3,14|
4,4,15|
];
constraint_x2_y2=[
0,0,40|
0,1,60|
0,2,88|
0,3,7.3|
0,4,45|
1,0,30|
1,1,89|
1,2,14|
1,3,22|
1,4,91|
2,0,35|
2,1,20|
2,2,32|
2,3,82|
2,4,71|
3,0,83|
3,1,1.7|
3,2,43|
3,3,54|
3,4,22|
4,0,47|
4,1,11|
4,2,67|
4,3,17|
4,4,29|
];
constraint_x3_y3=[
0,0,12|
0,1,42|
0,2,67|
0,3,21|
0,4,87|
1,0,79|
1,1,82|
1,2,96|
1,3,36|
1,4,1e+02|
2,0,3.1|
2,1,84|
2,2,91|
2,3,14|
2,4,16|
3,0,76|
3,1,33|
3,2,10|
3,3,16|
3,4,88|
4,0,91|
4,1,6.3|
4,2,85|
4,3,65|
4,4,75|
];
constraint_x4_y4=[
0,0,22|
0,1,57|
0,2,54|
0,3,35|
0,4,63|
1,0,79|
1,1,82|
1,2,4.9|
1,3,99|
1,4,82|
2,0,39|
2,1,65|
2,2,19|
2,3,87|
2,4,94|
3,0,54|
3,1,2.4|
3,2,76|
3,3,34|
3,4,42|
4,0,52|
4,1,3.7|
4,2,38|
4,3,52|
4,4,95|
];
constraint_x5_y5=[
0,0,21|
0,1,2.1|
0,2,14|
0,3,43|
0,4,47|
1,0,37|
1,1,72|
1,2,92|
1,3,26|
1,4,3.1|
2,0,51|
2,1,35|
2,2,89|
2,3,86|
2,4,39|
3,0,8|
3,1,68|
3,2,1|
3,3,69|
3,4,82|
4,0,47|
4,1,24|
4,2,34|
4,3,55|
4,4,41|
];
constraint_x6_y6=[
0,0,6.1|
0,1,45|
0,2,18|
0,3,32|
0,4,24|
1,0,19|
1,1,78|
1,2,63|
1,3,98|
1,4,26|
2,0,36|
2,1,59|
2,2,68|
2,3,40|
2,4,1|
3,0,75|
3,1,30|
3,2,51|
3,3,40|
3,4,58|
4,0,48|
4,1,35|
4,2,11|
4,3,5.5|
4,4,17|
];
constraint_x7_y7=[
0,0,18|
0,1,17|
0,2,12|
0,3,95|
0,4,26|
1,0,74|
1,1,17|
1,2,9.2|
1,3,98|
1,4,78|
2,0,17|
2,1,7|
2,2,81|
2,3,82|
2,4,80|
3,0,9.7|
3,1,21|
3,2,25|
3,3,36|
3,4,20|
4,0,1.1|
4,1,90|
4,2,99|
4,3,92|
4,4,23|
];
constraint_x8_y8=[
0,0,32|
0,1,88|
0,2,61|
0,3,22|
0,4,23|
1,0,32|
1,1,45|
1,2,67|
1,3,66|
1,4,93|
2,0,57|
2,1,22|
2,2,39|
2,3,63|
2,4,93|
3,0,42|
3,1,95|
3,2,53|
3,3,70|
3,4,94|
4,0,39|
4,1,36|
4,2,79|
4,3,83|
4,4,92|
];
constraint_x9_y9=[
0,0,40|
0,1,28|
0,2,36|
0,3,1.8|
0,4,65|
1,0,87|
1,1,57|
1,2,34|
1,3,41|
1,4,75|
2,0,45|
2,1,65|
2,2,0.89|
2,3,17|
2,4,0.61|
3,0,76|
3,1,68|
3,2,21|
3,3,91|
3,4,4.5|
4,0,38|
4,1,3.9|
4,2,7.7|
4,3,34|
4,4,74|
];
constraint_x10_y10=[
0,0,59|
0,1,41|
0,2,45|
0,3,25|
0,4,68|
1,0,65|
1,1,61|
1,2,32|
1,3,28|
1,4,48|
2,0,90|
2,1,55|
2,2,57|
2,3,70|
2,4,9.8|
3,0,80|
3,1,91|
3,2,11|
3,3,81|
3,4,90|
4,0,42|
4,1,20|
4,2,90|
4,3,74|
4,4,78|
];
initial_distribution_y1=[0.34,0.19,0.13,0.15,0.18];
initial_distribution_y2=[0.22,0.16,0.11,0.25,0.26];
initial_distribution_y3=[0.27,0.19,0.23,0.19,0.12];
initial_distribution_y4=[0.22,0.14,0.14,0.24,0.27];
initial_distribution_y5=[0.097,0.13,0.14,0.1,0.53];
initial_distribution_y6=[0.19,0.02,0.3,0.19,0.31];
initial_distribution_y7=[0.045,0.26,0.31,0.29,0.095];
initial_distribution_y8=[0.31,0.22,0.28,0.14,0.053];
initial_distribution_y9=[0.53,0.022,0.15,0.23,0.063];
initial_distribution_y10=[0.082,0.13,0.31,0.26,0.22];
transition_y1=[
0.27,0.28,0.25,0.05,0.15|
0.33,0.22,0.25,0.17,0.026|
0.21,0.23,0.17,0.16,0.23|
0.23,0.25,0.19,0.068,0.25|
0.23,0.47,0.0079,0.26,0.028|
];
transition_y2=[
0.12,0.013,0.023,0.42,0.42|
0.17,0.23,0.088,0.2,0.31|
0.073,0.27,0.19,0.19,0.27|
0.12,0.064,0.25,0.13,0.44|
0.11,0.14,0.27,0.11,0.37|
];
transition_y3=[
0.15,0.27,0.23,0.18,0.17|
0.2,0.07,0.29,0.42,0.017|
0.26,0.36,0.24,0.084,0.054|
0.31,0.27,0.13,0.28,0.011|
0.13,0.032,0.24,0.26,0.34|
];
transition_y4=[
0.04,0.13,0.34,0.19,0.3|
0.16,0.21,0.28,0.2,0.15|
0.41,0.3,0.24,0.039,0.0088|
0.2,0.12,0.24,0.31,0.14|
0.22,0.25,0.23,0.11,0.19|
];
transition_y5=[
0.25,0.25,0.24,0.16,0.11|
0.14,0.13,0.21,0.36,0.16|
0.11,0.29,0.33,0.21,0.057|
0.12,0.35,0.16,0.085,0.28|
0.25,0.24,0.19,0.03,0.29|
];
transition_y6=[
0.09,0.39,0.32,0.14,0.071|
0.19,0.1,0.32,0.2,0.19|
0.25,0.14,0.28,0.1,0.23|
0.21,0.062,0.12,0.23,0.38|
0.11,0.12,0.24,0.2,0.33|
];
transition_y7=[
0.26,0.3,0.13,0.037,0.26|
0.07,0.38,0.072,0.17,0.31|
0.26,0.2,0.3,0.16,0.087|
0.2,0.21,0.22,0.29,0.079|
0.21,0.36,0.31,0.049,0.062|
];
transition_y8=[
0.19,0.17,0.26,0.26,0.13|
0.36,0.26,0.12,0.24,0.023|
0.13,0.3,0.1,0.43,0.027|
0.061,0.47,0.22,0.24,0.016|
0.37,0.21,0.1,0.032,0.28|
];
transition_y9=[
0.089,0.29,0.31,0.23,0.084|
0.32,0.055,0.32,0.17,0.12|
0.23,0.22,0.2,0.3,0.054|
0.22,0.13,0.29,0.21,0.15|
0.3,0.29,0.089,0.3,0.025|
];
transition_y10=[
0.32,0.31,0.14,0.2,0.019|
0.18,0.0082,0.21,0.085,0.51|
0.086,0.39,0.1,0.17,0.25|
0.087,0.29,0.2,0.26,0.16|
0.075,0.35,0.43,0.1,0.05|
];
